<number of tasks>
89

<cycle time>
79

<task times>
1 28
2 17
3 7
4 10
5 12
6 16
7 13
8 8
9 13
10 24
11 16
12 24
13 12
14 20
15 22
16 22
17 22
18 47
19 6
20 12
21 6
22 22
23 7
24 14
25 68
26 15
27 8
28 74
29 32
30 11
31 18
32 15
33 42
34 27
35 38
36 38
37 26
38 35
39 31
40 8
41 14
42 8
43 8
44 8
45 17
46 7
47 19
48 12
49 24
50 26
51 22
52 14
53 27
54 60
55 4
56 2
57 1
58 9
59 5
60 6
61 7
62 12
63 2
64 11
65 14
66 6
67 21
68 14
69 1
70 6
71 21
72 11
73 14
74 28
75 12
76 11
77 30
78 22
79 14
80 31
81 18
82 16
83 7
84 38
85 8
86 31
87 29
88 12
89 18

<precedence relations>
1,2
2,3
3,4
4,5
4,6
4,7
4,8
4,9
5,10
6,11
7,12
8,18
9,18
10,14
11,12
12,13
13,14
14,15
14,16
15,17
16,54
17,18
18,19
18,20
19,22
20,21
20,28
21,54
22,23
23,24
24,25
25,26
25,27
25,29
26,37
27,33
28,29
29,31
30,54
31,32
32,33
33,34
34,35
35,36
35,37
36,38
37,38
38,39
39,40
39,41
39,42
39,43
40,44
41,53
42,53
43,45
44,52
45,46
46,47
47,48
47,49
49,50
50,51
51,52
52,53
53,68
53,69
53,70
53,71
54,55
55,56
56,57
57,58
57,59
57,60
57,61
57,62
57,63
57,64
57,65
57,66
58,67
59,67
60,67
61,67
62,67
63,67
64,67
65,67
66,67
67,73
68,72
69,72
70,72
71,73
72,78
72,80
73,74
74,75
74,76
75,77
76,81
77,78
78,79
79,81
80,81
81,82
81,84
81,85
82,83
83,86
84,86
85,86
86,87
87,88
87,89

<setup times forward>
1,30:1
2,30:1
3,30:1
4,5:5
4,7:5
4,8:2
4,9:2
4,30:1
5,6:5
5,8:3
5,9:7
5,10:7
5,30:4
6,5:5
6,7:5
6,8:2
6,9:2
6,10:2
6,11:5
6,30:1
7,6:5
7,8:3
7,9:7
7,10:7
7,30:4
8,5:3
8,6:2
8,7:3
8,9:4
8,10:4
8,11:3
8,12:3
8,13:3
8,14:4
8,15:4
8,16:3
8,30:1
9,5:7
9,6:2
9,7:7
9,8:4
9,11:7
9,12:7
9,13:7
9,16:1
9,17:4
9,18:4
9,30:3
10,6:2
10,7:7
10,8:4
10,11:7
10,12:7
10,13:7
10,30:3
11,8:3
11,9:7
11,10:7
11,30:4
12,8:3
12,9:7
12,10:7
12,30:4
13,8:3
13,9:7
13,10:7
13,14:7
13,30:4
14,8:4
14,16:1
14,30:3
15,8:4
15,16:1
15,17:4
15,30:3
16,8:3
16,9:1
16,15:1
16,17:3
16,18:3
16,19:2
16,20:2
16,21:2
16,22:2
16,23:2
16,24:2
16,25:2
16,26:1
16,27:2
16,28:1
16,29:3
16,30:2
16,31:3
16,32:3
16,33:4
16,34:4
16,35:1
16,36:5
16,37:1
16,38:5
16,40:6
16,41:5
16,42:5
16,44:6
16,46:3
16,47:5
16,48:3
16,49:5
16,50:5
16,51:5
16,52:6
16,53:6
16,54:3
16,69:2
16,70:2
16,71:6
16,72:2
16,80:2
17,9:4
17,16:3
17,30:1
18,16:3
18,19:1
18,20:1
18,30:1
19,16:2
19,28:1
19,54:1
19,55:1
19,56:1
19,57:1
19,58:7
19,59:1
19,60:8
19,61:8
19,62:8
19,63:8
19,64:8
19,65:3
19,66:8
19,67:7
20,16:2
20,25:4
20,26:3
20,27:4
20,28:1
21,16:2
21,25:4
21,26:3
21,27:4
21,28:1
21,29:5
21,31:5
21,32:5
21,33:2
21,34:2
21,35:3
21,36:7
21,37:3
21,38:7
21,39:2
21,40:4
21,41:3
21,42:3
21,43:2
21,44:4
21,45:2
21,46:1
21,47:3
21,48:5
21,49:3
21,50:7
21,51:7
21,52:4
21,53:4
21,54:1
21,68:2
21,71:4
22,16:2
22,28:1
22,54:1
22,55:1
22,56:1
22,57:1
22,58:7
22,59:1
22,60:8
22,61:8
22,62:8
22,63:8
22,64:8
22,65:3
22,66:8
22,67:7
23,16:2
23,28:1
23,54:1
23,55:1
23,56:1
23,57:1
23,58:7
23,59:1
23,60:8
23,61:8
23,62:8
23,63:8
23,64:8
23,65:3
23,66:8
23,67:7
24,16:2
24,25:4
24,28:1
24,54:1
24,55:1
24,56:1
24,57:1
24,58:7
24,59:1
24,60:8
24,61:8
24,62:8
24,63:8
24,64:8
24,65:3
24,66:8
24,67:7
25,16:2
25,20:4
25,21:4
25,26:1
25,28:3
25,29:1
25,30:4
25,54:5
25,55:5
25,56:5
25,57:5
25,58:3
25,59:5
25,60:4
25,61:4
25,62:4
25,63:4
25,64:4
25,65:7
25,66:4
25,67:3
26,16:1
26,20:3
26,21:3
26,27:1
26,28:2
26,29:2
26,30:3
26,31:2
26,32:2
26,33:5
26,34:5
26,36:4
26,54:4
26,55:4
26,56:4
26,57:4
26,58:4
26,59:4
26,60:5
26,61:5
26,62:5
26,63:5
26,64:5
26,65:6
26,66:5
26,67:4
27,16:2
27,20:4
27,21:4
27,26:1
27,28:3
27,29:1
27,30:4
27,31:1
27,32:1
27,33:6
27,54:5
27,55:5
27,56:5
27,57:5
27,58:3
27,59:5
27,60:4
27,61:4
27,62:4
27,63:4
27,64:4
27,65:7
27,66:4
27,67:3
28,16:1
28,19:1
28,21:1
28,22:1
28,23:1
28,24:1
28,25:3
28,26:2
28,27:3
28,29:4
28,30:1
28,54:2
28,55:2
28,56:2
28,57:2
28,58:6
28,59:2
28,60:7
28,61:7
28,62:7
28,63:7
28,64:7
28,65:4
28,66:7
28,67:6
29,16:3
29,21:5
29,26:2
29,27:1
29,30:5
29,54:6
29,55:6
29,56:6
29,57:6
29,58:2
29,59:6
29,60:3
29,61:3
29,62:3
29,63:3
29,64:3
29,65:8
29,66:3
29,67:2
30,1:1
30,2:1
30,3:1
30,4:1
30,5:4
30,6:1
30,7:4
30,8:1
30,9:3
30,10:3
30,11:4
30,12:4
30,13:4
30,14:3
30,15:3
30,16:2
30,17:1
30,18:1
30,25:4
30,26:3
30,27:4
30,28:1
30,29:5
30,31:5
30,32:5
30,33:2
30,34:2
30,35:3
30,36:7
30,37:3
30,38:7
30,39:2
30,40:4
30,41:3
30,42:3
30,43:2
30,44:4
30,45:2
30,46:1
30,47:3
30,48:5
30,49:3
30,50:7
30,51:7
30,52:4
30,53:4
30,54:1
30,68:2
30,71:4
31,16:3
31,21:5
31,26:2
31,27:1
31,30:5
31,54:6
31,55:6
31,56:6
31,57:6
31,58:2
31,59:6
31,60:3
31,61:3
31,62:3
31,63:3
31,64:3
31,65:8
31,66:3
31,67:2
32,16:3
32,21:5
32,26:2
32,27:1
32,30:5
32,33:7
32,54:6
32,55:6
32,56:6
32,57:6
32,58:2
32,59:6
32,60:3
32,61:3
32,62:3
32,63:3
32,64:3
32,65:8
32,66:3
32,67:2
33,16:4
33,21:2
33,26:5
33,30:2
33,54:1
33,55:1
33,56:1
33,57:1
33,58:9
33,59:1
33,60:10
33,61:10
33,62:10
33,63:10
33,64:10
33,65:1
33,66:10
33,67:9
34,16:4
34,21:2
34,26:5
34,30:2
34,35:5
34,54:1
34,55:1
34,56:1
34,57:1
34,58:9
34,59:1
34,60:10
34,61:10
34,62:10
34,63:10
34,64:10
34,65:1
34,66:10
34,67:9
35,16:1
35,21:3
35,30:3
35,36:4
35,54:4
35,55:4
35,56:4
35,57:4
35,58:4
35,59:4
35,60:5
35,61:5
35,62:5
35,63:5
35,64:5
35,65:6
35,66:5
35,67:4
36,16:5
36,21:7
36,26:4
36,30:7
36,37:4
36,54:8
36,55:8
36,56:8
36,57:8
36,59:8
36,60:1
36,61:1
36,62:1
36,63:1
36,64:1
36,65:10
36,66:1
37,16:1
37,21:3
37,30:3
37,36:4
37,38:4
37,54:4
37,55:4
37,56:4
37,57:4
37,58:4
37,59:4
37,60:5
37,61:5
37,62:5
37,63:5
37,64:5
37,65:6
37,66:5
37,67:4
38,16:5
38,21:7
38,30:7
38,39:5
38,54:8
38,55:8
38,56:8
38,57:8
38,59:8
38,60:1
38,61:1
38,62:1
38,63:1
38,64:1
38,65:10
38,66:1
39,21:2
39,30:2
39,40:6
39,41:5
39,42:5
39,54:3
39,55:3
39,56:3
39,57:3
39,58:5
39,59:3
39,60:6
39,61:6
39,62:6
39,63:6
39,64:6
39,65:5
39,66:6
39,67:5
40,16:6
40,21:4
40,30:4
40,41:1
40,42:1
40,43:6
40,45:6
40,46:3
40,47:1
40,48:9
40,49:1
40,50:11
40,51:11
40,54:3
40,55:3
40,56:3
40,57:3
40,58:11
40,59:3
40,60:12
40,61:12
40,62:12
40,63:12
40,64:12
40,65:1
40,66:12
40,67:11
41,16:5
41,21:3
41,30:3
41,40:1
41,43:5
41,44:1
41,45:5
41,46:2
41,48:8
41,50:10
41,51:10
41,52:1
41,53:1
41,54:2
41,55:2
41,56:2
41,57:2
41,58:10
41,59:2
41,60:11
41,61:11
41,62:11
41,63:11
41,64:11
41,66:11
41,67:10
42,16:5
42,21:3
42,30:3
42,40:1
42,43:5
42,44:1
42,45:5
42,46:2
42,48:8
42,50:10
42,51:10
42,52:1
42,53:1
42,54:2
42,55:2
42,56:2
42,57:2
42,58:10
42,59:2
42,60:11
42,61:11
42,62:11
42,63:11
42,64:11
42,66:11
42,67:10
43,21:2
43,30:2
43,40:6
43,41:5
43,42:5
43,44:6
43,54:3
43,55:3
43,56:3
43,57:3
43,58:5
43,59:3
43,60:6
43,61:6
43,62:6
43,63:6
43,64:6
43,65:5
43,66:6
43,67:5
44,16:6
44,21:4
44,30:4
44,41:1
44,42:1
44,43:6
44,45:6
44,46:3
44,47:1
44,48:9
44,49:1
44,50:11
44,51:11
44,54:3
44,55:3
44,56:3
44,57:3
44,58:11
44,59:3
44,60:12
44,61:12
44,62:12
44,63:12
44,64:12
44,65:1
44,66:12
44,67:11
45,21:2
45,30:2
45,40:6
45,41:5
45,42:5
45,44:6
45,46:3
45,54:3
45,55:3
45,56:3
45,57:3
45,58:5
45,59:3
45,60:6
45,61:6
45,62:6
45,63:6
45,64:6
45,65:5
45,66:6
45,67:5
46,16:3
46,21:1
46,30:1
46,40:3
46,41:2
46,42:2
46,44:3
46,47:2
46,58:8
46,60:9
46,61:9
46,62:9
46,63:9
46,64:9
46,65:2
46,66:9
46,67:8
47,16:5
47,21:3
47,30:3
47,40:1
47,44:1
47,48:8
47,54:2
47,55:2
47,56:2
47,57:2
47,58:10
47,59:2
47,60:11
47,61:11
47,62:11
47,63:11
47,64:11
47,66:11
47,67:10
48,16:3
48,21:5
48,30:5
48,40:9
48,41:8
48,42:8
48,44:9
48,49:8
48,50:2
48,51:2
48,52:9
48,53:9
48,54:6
48,55:6
48,56:6
48,57:6
48,58:2
48,59:6
48,60:3
48,61:3
48,62:3
48,63:3
48,64:3
48,65:8
48,66:3
48,67:2
48,68:3
48,69:5
48,70:5
48,71:9
48,72:5
48,73:3
48,74:3
48,75:3
48,76:3
48,77:5
48,78:8
48,79:8
48,80:5
48,81:8
48,82:8
48,83:8
48,84:8
48,85:8
48,86:8
49,16:5
49,21:3
49,30:3
49,40:1
49,44:1
49,48:8
49,50:10
49,54:2
49,55:2
49,56:2
49,57:2
49,58:10
49,59:2
49,60:11
49,61:11
49,62:11
49,63:11
49,64:11
49,66:11
49,67:10
50,16:5
50,21:7
50,30:7
50,40:11
50,41:10
50,42:10
50,44:11
50,48:2
50,54:8
50,55:8
50,56:8
50,57:8
50,59:8
50,60:1
50,61:1
50,62:1
50,63:1
50,64:1
50,65:10
50,66:1
51,16:5
51,21:7
51,30:7
51,40:11
51,41:10
51,42:10
51,44:11
51,48:2
51,52:11
51,54:8
51,55:8
51,56:8
51,57:8
51,59:8
51,60:1
51,61:1
51,62:1
51,63:1
51,64:1
51,65:10
51,66:1
52,16:6
52,21:4
52,30:4
52,41:1
52,42:1
52,48:9
52,54:3
52,55:3
52,56:3
52,57:3
52,58:11
52,59:3
52,60:12
52,61:12
52,62:12
52,63:12
52,64:12
52,65:1
52,66:12
52,67:11
53,16:6
53,21:4
53,30:4
53,48:9
53,54:3
53,55:3
53,56:3
53,57:3
53,58:11
53,59:3
53,60:12
53,61:12
53,62:12
53,63:12
53,64:12
53,65:1
53,66:12
53,67:11
53,68:6
53,69:4
53,70:4
54,19:1
54,22:1
54,23:1
54,24:1
54,25:5
54,26:4
54,27:5
54,28:2
54,29:6
54,31:6
54,32:6
54,33:1
54,34:1
54,35:4
54,36:8
54,37:4
54,38:8
54,39:3
54,40:3
54,41:2
54,42:2
54,43:3
54,44:3
54,45:3
54,47:2
54,48:6
54,49:2
54,50:8
54,51:8
54,52:3
54,53:3
54,68:3
54,69:1
54,70:1
54,71:3
54,72:1
54,80:1
55,19:1
55,22:1
55,23:1
55,24:1
55,25:5
55,26:4
55,27:5
55,28:2
55,29:6
55,31:6
55,32:6
55,33:1
55,34:1
55,35:4
55,36:8
55,37:4
55,38:8
55,39:3
55,40:3
55,41:2
55,42:2
55,43:3
55,44:3
55,45:3
55,47:2
55,48:6
55,49:2
55,50:8
55,51:8
55,52:3
55,53:3
55,68:3
55,69:1
55,70:1
55,71:3
55,72:1
55,80:1
56,19:1
56,22:1
56,23:1
56,24:1
56,25:5
56,26:4
56,27:5
56,28:2
56,29:6
56,31:6
56,32:6
56,33:1
56,34:1
56,35:4
56,36:8
56,37:4
56,38:8
56,39:3
56,40:3
56,41:2
56,42:2
56,43:3
56,44:3
56,45:3
56,47:2
56,48:6
56,49:2
56,50:8
56,51:8
56,52:3
56,53:3
56,68:3
56,69:1
56,70:1
56,71:3
56,72:1
56,80:1
57,19:1
57,22:1
57,23:1
57,24:1
57,25:5
57,26:4
57,27:5
57,28:2
57,29:6
57,31:6
57,32:6
57,33:1
57,34:1
57,35:4
57,36:8
57,37:4
57,38:8
57,39:3
57,40:3
57,41:2
57,42:2
57,43:3
57,44:3
57,45:3
57,47:2
57,48:6
57,49:2
57,50:8
57,51:8
57,52:3
57,53:3
57,58:8
57,60:9
57,61:9
57,62:9
57,63:9
57,64:9
57,65:2
57,66:9
57,68:3
57,69:1
57,70:1
57,71:3
57,72:1
57,80:1
58,19:7
58,22:7
58,23:7
58,24:7
58,25:3
58,26:4
58,27:3
58,28:6
58,29:2
58,31:2
58,32:2
58,33:9
58,34:9
58,35:4
58,37:4
58,39:5
58,40:11
58,41:10
58,42:10
58,43:5
58,44:11
58,45:5
58,46:8
58,47:10
58,48:2
58,49:10
58,52:11
58,53:11
58,59:8
58,60:1
58,61:1
58,62:1
58,63:1
58,64:1
58,65:10
58,66:1
58,68:5
58,69:7
58,70:7
58,71:11
58,72:7
58,80:7
59,19:1
59,22:1
59,23:1
59,24:1
59,25:5
59,26:4
59,27:5
59,28:2
59,29:6
59,31:6
59,32:6
59,33:1
59,34:1
59,35:4
59,36:8
59,37:4
59,38:8
59,39:3
59,40:3
59,41:2
59,42:2
59,43:3
59,44:3
59,45:3
59,47:2
59,48:6
59,49:2
59,50:8
59,51:8
59,52:3
59,53:3
59,58:8
59,60:9
59,61:9
59,62:9
59,63:9
59,64:9
59,65:2
59,66:9
59,67:8
59,68:3
59,69:1
59,70:1
59,71:3
59,72:1
59,80:1
60,19:8
60,22:8
60,23:8
60,24:8
60,25:4
60,26:5
60,27:4
60,28:7
60,29:3
60,31:3
60,32:3
60,33:10
60,34:10
60,35:5
60,36:1
60,37:5
60,38:1
60,39:6
60,40:12
60,41:11
60,42:11
60,43:6
60,44:12
60,45:6
60,46:9
60,47:11
60,48:3
60,49:11
60,50:1
60,51:1
60,52:12
60,53:12
60,58:1
60,59:9
60,65:11
60,67:1
60,68:6
60,69:8
60,70:8
60,71:12
60,72:8
60,80:8
61,19:8
61,22:8
61,23:8
61,24:8
61,25:4
61,26:5
61,27:4
61,28:7
61,29:3
61,31:3
61,32:3
61,33:10
61,34:10
61,35:5
61,36:1
61,37:5
61,38:1
61,39:6
61,40:12
61,41:11
61,42:11
61,43:6
61,44:12
61,45:6
61,46:9
61,47:11
61,48:3
61,49:11
61,50:1
61,51:1
61,52:12
61,53:12
61,58:1
61,59:9
61,65:11
61,67:1
61,68:6
61,69:8
61,70:8
61,71:12
61,72:8
61,80:8
62,19:8
62,22:8
62,23:8
62,24:8
62,25:4
62,26:5
62,27:4
62,28:7
62,29:3
62,31:3
62,32:3
62,33:10
62,34:10
62,35:5
62,36:1
62,37:5
62,38:1
62,39:6
62,40:12
62,41:11
62,42:11
62,43:6
62,44:12
62,45:6
62,46:9
62,47:11
62,48:3
62,49:11
62,50:1
62,51:1
62,52:12
62,53:12
62,58:1
62,59:9
62,65:11
62,67:1
62,68:6
62,69:8
62,70:8
62,71:12
62,72:8
62,80:8
63,19:8
63,22:8
63,23:8
63,24:8
63,25:4
63,26:5
63,27:4
63,28:7
63,29:3
63,31:3
63,32:3
63,33:10
63,34:10
63,35:5
63,36:1
63,37:5
63,38:1
63,39:6
63,40:12
63,41:11
63,42:11
63,43:6
63,44:12
63,45:6
63,46:9
63,47:11
63,48:3
63,49:11
63,50:1
63,51:1
63,52:12
63,53:12
63,58:1
63,59:9
63,65:11
63,67:1
63,68:6
63,69:8
63,70:8
63,71:12
63,72:8
63,80:8
64,19:8
64,22:8
64,23:8
64,24:8
64,25:4
64,26:5
64,27:4
64,28:7
64,29:3
64,31:3
64,32:3
64,33:10
64,34:10
64,35:5
64,36:1
64,37:5
64,38:1
64,39:6
64,40:12
64,41:11
64,42:11
64,43:6
64,44:12
64,45:6
64,46:9
64,47:11
64,48:3
64,49:11
64,50:1
64,51:1
64,52:12
64,53:12
64,58:1
64,59:9
64,65:11
64,67:1
64,68:6
64,69:8
64,70:8
64,71:12
64,72:8
64,80:8
65,19:3
65,22:3
65,23:3
65,24:3
65,25:7
65,26:6
65,27:7
65,28:4
65,29:8
65,31:8
65,32:8
65,33:1
65,34:1
65,35:6
65,36:10
65,37:6
65,38:10
65,39:5
65,40:1
65,43:5
65,44:1
65,45:5
65,46:2
65,48:8
65,50:10
65,51:10
65,52:1
65,53:1
65,58:10
65,59:2
65,60:11
65,61:11
65,62:11
65,63:11
65,64:11
65,66:11
65,67:10
65,68:5
65,69:3
65,70:3
65,71:1
65,72:3
65,80:3
66,19:8
66,22:8
66,23:8
66,24:8
66,25:4
66,26:5
66,27:4
66,28:7
66,29:3
66,31:3
66,32:3
66,33:10
66,34:10
66,35:5
66,36:1
66,37:5
66,38:1
66,39:6
66,40:12
66,41:11
66,42:11
66,43:6
66,44:12
66,45:6
66,46:9
66,47:11
66,48:3
66,49:11
66,50:1
66,51:1
66,52:12
66,53:12
66,58:1
66,59:9
66,65:11
66,67:1
66,68:6
66,69:8
66,70:8
66,71:12
66,72:8
66,80:8
67,19:7
67,22:7
67,23:7
67,24:7
67,25:3
67,26:4
67,27:3
67,28:6
67,29:2
67,31:2
67,32:2
67,33:9
67,34:9
67,35:4
67,37:4
67,39:5
67,40:11
67,41:10
67,42:10
67,43:5
67,44:11
67,45:5
67,46:8
67,47:10
67,48:2
67,49:10
67,52:11
67,53:11
67,68:5
67,69:7
67,70:7
67,71:11
67,72:7
67,73:5
67,80:7
68,21:2
68,30:2
68,48:3
68,54:3
68,55:3
68,56:3
68,57:3
68,58:5
68,59:3
68,60:6
68,61:6
68,62:6
68,63:6
68,64:6
68,65:5
68,66:6
68,67:5
68,69:2
68,70:2
68,71:6
68,72:2
68,77:2
69,16:2
69,48:5
69,54:1
69,55:1
69,56:1
69,57:1
69,58:7
69,59:1
69,60:8
69,61:8
69,62:8
69,63:8
69,64:8
69,65:3
69,66:8
69,67:7
69,68:2
69,71:4
69,73:2
69,74:2
69,75:2
69,76:2
70,16:2
70,48:5
70,54:1
70,55:1
70,56:1
70,57:1
70,58:7
70,59:1
70,60:8
70,61:8
70,62:8
70,63:8
70,64:8
70,65:3
70,66:8
70,67:7
70,68:2
70,71:4
70,73:2
70,74:2
70,75:2
70,76:2
71,16:6
71,21:4
71,30:4
71,48:9
71,54:3
71,55:3
71,56:3
71,57:3
71,58:11
71,59:3
71,60:12
71,61:12
71,62:12
71,63:12
71,64:12
71,65:1
71,66:12
71,67:11
71,68:6
71,69:4
71,70:4
71,72:4
71,73:6
71,80:4
72,16:2
72,48:5
72,54:1
72,55:1
72,56:1
72,57:1
72,58:7
72,59:1
72,60:8
72,61:8
72,62:8
72,63:8
72,64:8
72,65:3
72,66:8
72,67:7
72,71:4
72,73:2
72,74:2
72,75:2
72,76:2
72,78:3
73,48:3
73,69:2
73,70:2
73,72:2
73,80:2
74,48:3
74,69:2
74,70:2
74,72:2
74,80:2
75,48:3
75,69:2
75,70:2
75,72:2
75,77:2
75,80:2
76,48:3
76,69:2
76,70:2
76,72:2
76,77:2
76,78:5
76,79:5
76,80:2
76,81:5
77,48:5
77,68:2
77,76:2
77,78:3
78,48:8
78,76:5
78,80:3
79,48:8
79,76:5
79,80:3
80,16:2
80,48:5
80,54:1
80,55:1
80,56:1
80,57:1
80,58:7
80,59:1
80,60:8
80,61:8
80,62:8
80,63:8
80,64:8
80,65:3
80,66:8
80,67:7
80,71:4
80,73:2
80,74:2
80,75:2
80,76:2
80,78:3
80,79:3
80,81:3
81,48:8
82,48:8
83,48:8
84,48:8
85,48:8
86,48:8
86,87:8

<setup times backward>
5,1:5
5,2:5
5,3:5
5,4:5
5,6:5
5,8:3
5,9:7
5,30:4
6,9:2
6,10:2
7,1:5
7,2:5
7,3:5
7,4:5
7,6:5
7,8:3
7,9:7
7,10:7
7,30:4
8,1:2
8,2:2
8,3:2
8,4:2
8,6:2
8,9:4
8,10:4
8,14:4
8,15:4
8,16:3
8,30:1
11,1:5
11,2:5
11,3:5
11,4:5
11,6:5
11,8:3
11,9:7
11,10:7
11,30:4
12,1:5
12,2:5
12,3:5
12,4:5
12,6:5
12,8:3
12,9:7
12,10:7
12,30:4
13,1:5
13,2:5
13,3:5
13,4:5
13,6:5
13,8:3
13,9:7
13,10:7
13,30:4
16,9:1
16,10:1
16,14:1
16,15:1
16,25:2
16,26:1
16,27:2
16,29:3
16,31:3
16,32:3
16,35:1
16,36:5
16,37:1
16,38:5
16,48:3
16,50:5
16,51:5
17,1:2
17,2:2
17,3:2
17,4:2
17,6:2
17,9:4
17,10:4
17,14:4
17,15:4
17,16:3
17,30:1
18,1:2
18,2:2
18,3:2
18,4:2
18,6:2
18,9:4
18,10:4
18,14:4
18,15:4
18,16:3
18,30:1
19,1:1
19,2:1
19,3:1
19,4:1
19,6:1
19,9:3
19,10:3
19,14:3
19,15:3
19,16:2
19,28:1
19,58:7
19,60:8
19,61:8
19,62:8
19,63:8
19,64:8
19,66:8
19,67:7
20,1:1
20,2:1
20,3:1
20,4:1
20,6:1
20,9:3
20,10:3
20,14:3
20,15:3
20,16:2
20,25:4
20,26:3
20,27:4
21,1:1
21,2:1
21,3:1
21,4:1
21,6:1
21,9:3
21,10:3
21,14:3
21,15:3
21,16:2
21,25:4
21,26:3
21,27:4
21,28:1
21,29:5
21,31:5
21,32:5
21,35:3
21,36:7
21,37:3
21,38:7
21,39:2
21,43:2
21,45:2
21,48:5
21,50:7
21,51:7
21,68:2
22,1:1
22,2:1
22,3:1
22,4:1
22,6:1
22,9:3
22,10:3
22,14:3
22,15:3
22,16:2
22,28:1
22,58:7
22,60:8
22,61:8
22,62:8
22,63:8
22,64:8
22,66:8
22,67:7
23,1:1
23,2:1
23,3:1
23,4:1
23,6:1
23,9:3
23,10:3
23,14:3
23,15:3
23,16:2
23,28:1
23,58:7
23,60:8
23,61:8
23,62:8
23,63:8
23,64:8
23,66:8
23,67:7
24,1:1
24,2:1
24,3:1
24,4:1
24,6:1
24,9:3
24,10:3
24,14:3
24,15:3
24,16:2
24,28:1
24,58:7
24,60:8
24,61:8
24,62:8
24,63:8
24,64:8
24,66:8
24,67:7
25,58:3
25,60:4
25,61:4
25,62:4
25,63:4
25,64:4
25,66:4
25,67:3
26,25:1
26,27:1
26,29:2
26,31:2
26,32:2
26,36:4
26,58:4
26,60:5
26,61:5
26,62:5
26,63:5
26,64:5
26,66:5
26,67:4
27,29:1
27,31:1
27,32:1
27,58:3
27,60:4
27,61:4
27,62:4
27,63:4
27,64:4
27,66:4
27,67:3
28,9:2
28,10:2
28,14:2
28,15:2
28,16:1
28,25:3
28,26:2
28,27:3
28,58:6
28,60:7
28,61:7
28,62:7
28,63:7
28,64:7
28,66:7
28,67:6
29,58:2
29,60:3
29,61:3
29,62:3
29,63:3
29,64:3
29,66:3
29,67:2
30,1:1
30,2:1
30,3:1
30,4:1
30,6:1
30,9:3
30,10:3
30,14:3
30,15:3
30,16:2
30,25:4
30,26:3
30,27:4
30,28:1
30,29:5
30,31:5
30,32:5
30,35:3
30,36:7
30,37:3
30,38:7
30,39:2
30,43:2
30,45:2
30,48:5
30,50:7
30,51:7
30,68:2
31,58:2
31,60:3
31,61:3
31,62:3
31,63:3
31,64:3
31,66:3
31,67:2
32,58:2
32,60:3
32,61:3
32,62:3
32,63:3
32,64:3
32,66:3
32,67:2
33,1:3
33,2:3
33,3:3
33,4:3
33,6:3
33,8:1
33,9:5
33,10:5
33,14:5
33,15:5
33,16:4
33,17:1
33,18:1
33,19:2
33,20:2
33,21:2
33,22:2
33,23:2
33,24:2
33,25:6
33,26:5
33,27:6
33,28:3
33,29:7
33,30:2
33,31:7
33,32:7
33,54:1
33,55:1
33,56:1
33,57:1
33,58:9
33,59:1
33,60:10
33,61:10
33,62:10
33,63:10
33,64:10
33,66:10
33,67:9
34,1:3
34,2:3
34,3:3
34,4:3
34,6:3
34,8:1
34,9:5
34,10:5
34,14:5
34,15:5
34,16:4
34,17:1
34,18:1
34,19:2
34,20:2
34,21:2
34,22:2
34,23:2
34,24:2
34,25:6
34,26:5
34,27:6
34,28:3
34,29:7
34,30:2
34,31:7
34,32:7
34,54:1
34,55:1
34,56:1
34,57:1
34,58:9
34,59:1
34,60:10
34,61:10
34,62:10
34,63:10
34,64:10
34,66:10
34,67:9
35,25:1
35,27:1
35,29:2
35,31:2
35,32:2
35,58:4
35,60:5
35,61:5
35,62:5
35,63:5
35,64:5
35,66:5
35,67:4
36,60:1
36,61:1
36,62:1
36,63:1
36,64:1
36,66:1
37,25:1
37,27:1
37,29:2
37,31:2
37,32:2
37,36:4
37,58:4
37,60:5
37,61:5
37,62:5
37,63:5
37,64:5
37,66:5
37,67:4
38,60:1
38,61:1
38,62:1
38,63:1
38,64:1
38,66:1
39,9:1
39,10:1
39,14:1
39,15:1
39,25:2
39,26:1
39,27:2
39,29:3
39,31:3
39,32:3
39,35:1
39,36:5
39,37:1
39,38:5
39,58:5
39,60:6
39,61:6
39,62:6
39,63:6
39,64:6
39,66:6
39,67:5
40,1:5
40,2:5
40,3:5
40,4:5
40,6:5
40,8:3
40,9:7
40,10:7
40,14:7
40,15:7
40,16:6
40,17:3
40,18:3
40,19:4
40,20:4
40,21:4
40,22:4
40,23:4
40,24:4
40,25:8
40,26:7
40,27:8
40,28:5
40,29:9
40,30:4
40,31:9
40,32:9
40,33:2
40,34:2
40,35:7
40,36:11
40,37:7
40,38:11
40,39:6
40,41:1
40,42:1
40,43:6
40,45:6
40,46:3
40,47:1
40,48:9
40,49:1
40,50:11
40,51:11
40,54:3
40,55:3
40,56:3
40,57:3
40,58:11
40,59:3
40,60:12
40,61:12
40,62:12
40,63:12
40,64:12
40,65:1
40,66:12
40,67:11
41,1:4
41,2:4
41,3:4
41,4:4
41,6:4
41,8:2
41,9:6
41,10:6
41,14:6
41,15:6
41,16:5
41,17:2
41,18:2
41,19:3
41,20:3
41,21:3
41,22:3
41,23:3
41,24:3
41,25:7
41,26:6
41,27:7
41,28:4
41,29:8
41,30:3
41,31:8
41,32:8
41,33:1
41,34:1
41,35:6
41,36:10
41,37:6
41,38:10
41,39:5
41,43:5
41,45:5
41,46:2
41,48:8
41,50:10
41,51:10
41,54:2
41,55:2
41,56:2
41,57:2
41,58:10
41,59:2
41,60:11
41,61:11
41,62:11
41,63:11
41,64:11
41,66:11
41,67:10
42,1:4
42,2:4
42,3:4
42,4:4
42,6:4
42,8:2
42,9:6
42,10:6
42,14:6
42,15:6
42,16:5
42,17:2
42,18:2
42,19:3
42,20:3
42,21:3
42,22:3
42,23:3
42,24:3
42,25:7
42,26:6
42,27:7
42,28:4
42,29:8
42,30:3
42,31:8
42,32:8
42,33:1
42,34:1
42,35:6
42,36:10
42,37:6
42,38:10
42,39:5
42,43:5
42,45:5
42,46:2
42,48:8
42,50:10
42,51:10
42,54:2
42,55:2
42,56:2
42,57:2
42,58:10
42,59:2
42,60:11
42,61:11
42,62:11
42,63:11
42,64:11
42,66:11
42,67:10
43,9:1
43,10:1
43,14:1
43,15:1
43,25:2
43,26:1
43,27:2
43,29:3
43,31:3
43,32:3
43,35:1
43,36:5
43,37:1
43,38:5
43,58:5
43,60:6
43,61:6
43,62:6
43,63:6
43,64:6
43,66:6
43,67:5
44,1:5
44,2:5
44,3:5
44,4:5
44,6:5
44,8:3
44,9:7
44,10:7
44,14:7
44,15:7
44,16:6
44,17:3
44,18:3
44,19:4
44,20:4
44,21:4
44,22:4
44,23:4
44,24:4
44,25:8
44,26:7
44,27:8
44,28:5
44,29:9
44,30:4
44,31:9
44,32:9
44,33:2
44,34:2
44,35:7
44,36:11
44,37:7
44,38:11
44,39:6
44,41:1
44,42:1
44,43:6
44,45:6
44,46:3
44,47:1
44,48:9
44,49:1
44,50:11
44,51:11
44,54:3
44,55:3
44,56:3
44,57:3
44,58:11
44,59:3
44,60:12
44,61:12
44,62:12
44,63:12
44,64:12
44,65:1
44,66:12
44,67:11
45,9:1
45,10:1
45,14:1
45,15:1
45,25:2
45,26:1
45,27:2
45,29:3
45,31:3
45,32:3
45,35:1
45,36:5
45,37:1
45,38:5
45,58:5
45,60:6
45,61:6
45,62:6
45,63:6
45,64:6
45,66:6
45,67:5
46,1:2
46,2:2
46,3:2
46,4:2
46,6:2
46,9:4
46,10:4
46,14:4
46,15:4
46,16:3
46,19:1
46,20:1
46,21:1
46,22:1
46,23:1
46,24:1
46,25:5
46,26:4
46,27:5
46,28:2
46,29:6
46,30:1
46,31:6
46,32:6
46,35:4
46,36:8
46,37:4
46,38:8
46,39:3
46,43:3
46,45:3
46,58:8
46,60:9
46,61:9
46,62:9
46,63:9
46,64:9
46,66:9
46,67:8
47,1:4
47,2:4
47,3:4
47,4:4
47,6:4
47,8:2
47,9:6
47,10:6
47,14:6
47,15:6
47,16:5
47,17:2
47,18:2
47,19:3
47,20:3
47,21:3
47,22:3
47,23:3
47,24:3
47,25:7
47,26:6
47,27:7
47,28:4
47,29:8
47,30:3
47,31:8
47,32:8
47,33:1
47,34:1
47,35:6
47,36:10
47,37:6
47,38:10
47,39:5
47,43:5
47,45:5
47,46:2
47,54:2
47,55:2
47,56:2
47,57:2
47,58:10
47,59:2
47,60:11
47,61:11
47,62:11
47,63:11
47,64:11
47,66:11
47,67:10
48,36:2
48,38:2
48,50:2
48,51:2
48,58:2
48,60:3
48,61:3
48,62:3
48,63:3
48,64:3
48,66:3
48,67:2
49,1:4
49,2:4
49,3:4
49,4:4
49,6:4
49,8:2
49,9:6
49,10:6
49,14:6
49,15:6
49,16:5
49,17:2
49,18:2
49,19:3
49,20:3
49,21:3
49,22:3
49,23:3
49,24:3
49,25:7
49,26:6
49,27:7
49,28:4
49,29:8
49,30:3
49,31:8
49,32:8
49,33:1
49,34:1
49,35:6
49,36:10
49,37:6
49,38:10
49,39:5
49,43:5
49,45:5
49,46:2
49,48:8
49,54:2
49,55:2
49,56:2
49,57:2
49,58:10
49,59:2
49,60:11
49,61:11
49,62:11
49,63:11
49,64:11
49,66:11
49,67:10
50,60:1
50,61:1
50,62:1
50,63:1
50,64:1
50,66:1
51,60:1
51,61:1
51,62:1
51,63:1
51,64:1
51,66:1
52,1:5
52,2:5
52,3:5
52,4:5
52,6:5
52,8:3
52,9:7
52,10:7
52,14:7
52,15:7
52,16:6
52,17:3
52,18:3
52,19:4
52,20:4
52,21:4
52,22:4
52,23:4
52,24:4
52,25:8
52,26:7
52,27:8
52,28:5
52,29:9
52,30:4
52,31:9
52,32:9
52,33:2
52,34:2
52,35:7
52,36:11
52,37:7
52,38:11
52,39:6
52,41:1
52,42:1
52,43:6
52,45:6
52,46:3
52,47:1
52,48:9
52,49:1
52,50:11
52,51:11
52,54:3
52,55:3
52,56:3
52,57:3
52,58:11
52,59:3
52,60:12
52,61:12
52,62:12
52,63:12
52,64:12
52,65:1
52,66:12
52,67:11
53,1:5
53,2:5
53,3:5
53,4:5
53,6:5
53,8:3
53,9:7
53,10:7
53,14:7
53,15:7
53,16:6
53,17:3
53,18:3
53,19:4
53,20:4
53,21:4
53,22:4
53,23:4
53,24:4
53,25:8
53,26:7
53,27:8
53,28:5
53,29:9
53,30:4
53,31:9
53,32:9
53,33:2
53,34:2
53,35:7
53,36:11
53,37:7
53,38:11
53,39:6
53,41:1
53,42:1
53,43:6
53,45:6
53,46:3
53,47:1
53,48:9
53,49:1
53,50:11
53,51:11
53,54:3
53,55:3
53,56:3
53,57:3
53,58:11
53,59:3
53,60:12
53,61:12
53,62:12
53,63:12
53,64:12
53,65:1
53,66:12
53,67:11
54,1:2
54,2:2
54,3:2
54,4:2
54,6:2
54,9:4
54,10:4
54,14:4
54,15:4
54,16:3
54,19:1
54,20:1
54,21:1
54,22:1
54,23:1
54,24:1
54,25:5
54,26:4
54,27:5
54,28:2
54,29:6
54,30:1
54,31:6
54,32:6
54,35:4
54,36:8
54,37:4
54,38:8
54,39:3
54,43:3
54,45:3
54,48:6
54,50:8
54,51:8
54,68:3
54,69:1
54,70:1
54,72:1
54,80:1
55,1:2
55,2:2
55,3:2
55,4:2
55,6:2
55,9:4
55,10:4
55,14:4
55,15:4
55,16:3
55,19:1
55,20:1
55,21:1
55,22:1
55,23:1
55,24:1
55,25:5
55,26:4
55,27:5
55,28:2
55,29:6
55,30:1
55,31:6
55,32:6
55,35:4
55,36:8
55,37:4
55,38:8
55,39:3
55,43:3
55,45:3
55,48:6
55,50:8
55,51:8
55,68:3
55,69:1
55,70:1
55,72:1
55,80:1
56,1:2
56,2:2
56,3:2
56,4:2
56,6:2
56,9:4
56,10:4
56,14:4
56,15:4
56,16:3
56,19:1
56,20:1
56,21:1
56,22:1
56,23:1
56,24:1
56,25:5
56,26:4
56,27:5
56,28:2
56,29:6
56,30:1
56,31:6
56,32:6
56,35:4
56,36:8
56,37:4
56,38:8
56,39:3
56,43:3
56,45:3
56,48:6
56,50:8
56,51:8
56,68:3
56,69:1
56,70:1
56,72:1
56,80:1
57,1:2
57,2:2
57,3:2
57,4:2
57,6:2
57,9:4
57,10:4
57,14:4
57,15:4
57,16:3
57,19:1
57,20:1
57,21:1
57,22:1
57,23:1
57,24:1
57,25:5
57,26:4
57,27:5
57,28:2
57,29:6
57,30:1
57,31:6
57,32:6
57,35:4
57,36:8
57,37:4
57,38:8
57,39:3
57,43:3
57,45:3
57,48:6
57,50:8
57,51:8
57,68:3
57,69:1
57,70:1
57,72:1
57,80:1
58,60:1
58,61:1
58,62:1
58,63:1
58,64:1
58,66:1
59,1:2
59,2:2
59,3:2
59,4:2
59,6:2
59,9:4
59,10:4
59,14:4
59,15:4
59,16:3
59,19:1
59,20:1
59,21:1
59,22:1
59,23:1
59,24:1
59,25:5
59,26:4
59,27:5
59,28:2
59,29:6
59,30:1
59,31:6
59,32:6
59,35:4
59,36:8
59,37:4
59,38:8
59,39:3
59,43:3
59,45:3
59,48:6
59,50:8
59,51:8
59,58:8
59,60:9
59,61:9
59,62:9
59,63:9
59,64:9
59,66:9
59,68:3
59,69:1
59,70:1
59,72:1
59,80:1
65,1:4
65,2:4
65,3:4
65,4:4
65,6:4
65,8:2
65,9:6
65,10:6
65,14:6
65,15:6
65,16:5
65,17:2
65,18:2
65,19:3
65,20:3
65,21:3
65,22:3
65,23:3
65,24:3
65,25:7
65,26:6
65,27:7
65,28:4
65,29:8
65,30:3
65,31:8
65,32:8
65,33:1
65,34:1
65,35:6
65,36:10
65,37:6
65,38:10
65,39:5
65,43:5
65,45:5
65,46:2
65,48:8
65,50:10
65,51:10
65,54:2
65,55:2
65,56:2
65,57:2
65,58:10
65,59:2
65,60:11
65,61:11
65,62:11
65,63:11
65,64:11
65,66:11
65,68:5
65,69:3
65,70:3
65,72:3
65,80:3
67,60:1
67,61:1
67,62:1
67,63:1
67,64:1
67,66:1
68,9:1
68,10:1
68,14:1
68,15:1
68,25:2
68,26:1
68,27:2
68,29:3
68,31:3
68,32:3
68,35:1
68,36:5
68,37:1
68,38:5
68,48:3
68,50:5
68,51:5
68,58:5
68,60:6
68,61:6
68,62:6
68,63:6
68,64:6
68,66:6
68,67:5
69,1:1
69,2:1
69,3:1
69,4:1
69,6:1
69,9:3
69,10:3
69,14:3
69,15:3
69,16:2
69,25:4
69,26:3
69,27:4
69,28:1
69,29:5
69,31:5
69,32:5
69,35:3
69,36:7
69,37:3
69,38:7
69,39:2
69,43:2
69,45:2
69,48:5
69,50:7
69,51:7
69,58:7
69,60:8
69,61:8
69,62:8
69,63:8
69,64:8
69,66:8
69,67:7
69,68:2
69,73:2
69,74:2
69,75:2
69,76:2
70,1:1
70,2:1
70,3:1
70,4:1
70,6:1
70,9:3
70,10:3
70,14:3
70,15:3
70,16:2
70,25:4
70,26:3
70,27:4
70,28:1
70,29:5
70,31:5
70,32:5
70,35:3
70,36:7
70,37:3
70,38:7
70,39:2
70,43:2
70,45:2
70,48:5
70,50:7
70,51:7
70,58:7
70,60:8
70,61:8
70,62:8
70,63:8
70,64:8
70,66:8
70,67:7
70,68:2
70,73:2
70,74:2
70,75:2
70,76:2
71,1:5
71,2:5
71,3:5
71,4:5
71,6:5
71,8:3
71,9:7
71,10:7
71,14:7
71,15:7
71,16:6
71,17:3
71,18:3
71,19:4
71,20:4
71,21:4
71,22:4
71,23:4
71,24:4
71,25:8
71,26:7
71,27:8
71,28:5
71,29:9
71,30:4
71,31:9
71,32:9
71,33:2
71,34:2
71,35:7
71,36:11
71,37:7
71,38:11
71,39:6
71,41:1
71,42:1
71,43:6
71,45:6
71,46:3
71,47:1
71,48:9
71,49:1
71,50:11
71,51:11
71,54:3
71,55:3
71,56:3
71,57:3
71,58:11
71,59:3
71,60:12
71,61:12
71,62:12
71,63:12
71,64:12
71,65:1
71,66:12
71,67:11
71,68:6
71,69:4
71,70:4
71,72:4
71,80:4
72,1:1
72,2:1
72,3:1
72,4:1
72,6:1
72,9:3
72,10:3
72,14:3
72,15:3
72,16:2
72,25:4
72,26:3
72,27:4
72,28:1
72,29:5
72,31:5
72,32:5
72,35:3
72,36:7
72,37:3
72,38:7
72,39:2
72,43:2
72,45:2
72,48:5
72,50:7
72,51:7
72,58:7
72,60:8
72,61:8
72,62:8
72,63:8
72,64:8
72,66:8
72,67:7
72,68:2
72,73:2
72,74:2
72,75:2
72,76:2
73,9:1
73,10:1
73,14:1
73,15:1
73,25:2
73,26:1
73,27:2
73,29:3
73,31:3
73,32:3
73,35:1
73,36:5
73,37:1
73,38:5
73,48:3
73,50:5
73,51:5
73,58:5
73,60:6
73,61:6
73,62:6
73,63:6
73,64:6
73,66:6
73,67:5
74,9:1
74,10:1
74,14:1
74,15:1
74,25:2
74,26:1
74,27:2
74,29:3
74,31:3
74,32:3
74,35:1
74,36:5
74,37:1
74,38:5
74,48:3
74,50:5
74,51:5
74,58:5
74,60:6
74,61:6
74,62:6
74,63:6
74,64:6
74,66:6
74,67:5
75,9:1
75,10:1
75,14:1
75,15:1
75,25:2
75,26:1
75,27:2
75,29:3
75,31:3
75,32:3
75,35:1
75,36:5
75,37:1
75,38:5
75,48:3
75,50:5
75,51:5
75,58:5
75,60:6
75,61:6
75,62:6
75,63:6
75,64:6
75,66:6
75,67:5
76,9:1
76,10:1
76,14:1
76,15:1
76,25:2
76,26:1
76,27:2
76,29:3
76,31:3
76,32:3
76,35:1
76,36:5
76,37:1
76,38:5
76,48:3
76,50:5
76,51:5
76,58:5
76,60:6
76,61:6
76,62:6
76,63:6
76,64:6
76,66:6
76,67:5
77,1:1
77,2:1
77,3:1
77,4:1
77,6:1
77,9:3
77,10:3
77,14:3
77,15:3
77,16:2
77,25:4
77,26:3
77,27:4
77,28:1
77,29:5
77,31:5
77,32:5
77,35:3
77,36:7
77,37:3
77,38:7
77,39:2
77,43:2
77,45:2
77,48:5
77,50:7
77,51:7
77,58:7
77,60:8
77,61:8
77,62:8
77,63:8
77,64:8
77,66:8
77,67:7
77,68:2
77,73:2
77,74:2
77,75:2
77,76:2
78,1:4
78,2:4
78,3:4
78,4:4
78,6:4
78,8:2
78,9:6
78,10:6
78,14:6
78,15:6
78,16:5
78,17:2
78,18:2
78,19:3
78,20:3
78,21:3
78,22:3
78,23:3
78,24:3
78,25:7
78,26:6
78,27:7
78,28:4
78,29:8
78,30:3
78,31:8
78,32:8
78,33:1
78,34:1
78,35:6
78,36:10
78,37:6
78,38:10
78,39:5
78,43:5
78,45:5
78,46:2
78,48:8
78,50:10
78,51:10
78,54:2
78,55:2
78,56:2
78,57:2
78,58:10
78,59:2
78,60:11
78,61:11
78,62:11
78,63:11
78,64:11
78,66:11
78,67:10
78,68:5
78,69:3
78,70:3
78,72:3
78,73:5
78,74:5
78,75:5
78,76:5
78,77:3
78,80:3
79,1:4
79,2:4
79,3:4
79,4:4
79,6:4
79,8:2
79,9:6
79,10:6
79,14:6
79,15:6
79,16:5
79,17:2
79,18:2
79,19:3
79,20:3
79,21:3
79,22:3
79,23:3
79,24:3
79,25:7
79,26:6
79,27:7
79,28:4
79,29:8
79,30:3
79,31:8
79,32:8
79,33:1
79,34:1
79,35:6
79,36:10
79,37:6
79,38:10
79,39:5
79,43:5
79,45:5
79,46:2
79,48:8
79,50:10
79,51:10
79,54:2
79,55:2
79,56:2
79,57:2
79,58:10
79,59:2
79,60:11
79,61:11
79,62:11
79,63:11
79,64:11
79,66:11
79,67:10
79,68:5
79,69:3
79,70:3
79,72:3
79,73:5
79,74:5
79,75:5
79,76:5
79,77:3
79,80:3
80,1:1
80,2:1
80,3:1
80,4:1
80,6:1
80,9:3
80,10:3
80,14:3
80,15:3
80,16:2
80,25:4
80,26:3
80,27:4
80,28:1
80,29:5
80,31:5
80,32:5
80,35:3
80,36:7
80,37:3
80,38:7
80,39:2
80,43:2
80,45:2
80,48:5
80,50:7
80,51:7
80,58:7
80,60:8
80,61:8
80,62:8
80,63:8
80,64:8
80,66:8
80,67:7
80,68:2
80,73:2
80,74:2
80,75:2
80,76:2
81,1:4
81,2:4
81,3:4
81,4:4
81,6:4
81,8:2
81,9:6
81,10:6
81,14:6
81,15:6
81,16:5
81,17:2
81,18:2
81,19:3
81,20:3
81,21:3
81,22:3
81,23:3
81,24:3
81,25:7
81,26:6
81,27:7
81,28:4
81,29:8
81,30:3
81,31:8
81,32:8
81,33:1
81,34:1
81,35:6
81,36:10
81,37:6
81,38:10
81,39:5
81,43:5
81,45:5
81,46:2
81,48:8
81,50:10
81,51:10
81,54:2
81,55:2
81,56:2
81,57:2
81,58:10
81,59:2
81,60:11
81,61:11
81,62:11
81,63:11
81,64:11
81,66:11
81,67:10
81,68:5
81,69:3
81,70:3
81,72:3
81,73:5
81,74:5
81,75:5
81,76:5
81,77:3
81,80:3
82,1:4
82,2:4
82,3:4
82,4:4
82,6:4
82,8:2
82,9:6
82,10:6
82,14:6
82,15:6
82,16:5
82,17:2
82,18:2
82,19:3
82,20:3
82,21:3
82,22:3
82,23:3
82,24:3
82,25:7
82,26:6
82,27:7
82,28:4
82,29:8
82,30:3
82,31:8
82,32:8
82,33:1
82,34:1
82,35:6
82,36:10
82,37:6
82,38:10
82,39:5
82,43:5
82,45:5
82,46:2
82,48:8
82,50:10
82,51:10
82,54:2
82,55:2
82,56:2
82,57:2
82,58:10
82,59:2
82,60:11
82,61:11
82,62:11
82,63:11
82,64:11
82,66:11
82,67:10
82,68:5
82,69:3
82,70:3
82,72:3
82,73:5
82,74:5
82,75:5
82,76:5
82,77:3
82,80:3
83,1:4
83,2:4
83,3:4
83,4:4
83,6:4
83,8:2
83,9:6
83,10:6
83,14:6
83,15:6
83,16:5
83,17:2
83,18:2
83,19:3
83,20:3
83,21:3
83,22:3
83,23:3
83,24:3
83,25:7
83,26:6
83,27:7
83,28:4
83,29:8
83,30:3
83,31:8
83,32:8
83,33:1
83,34:1
83,35:6
83,36:10
83,37:6
83,38:10
83,39:5
83,43:5
83,45:5
83,46:2
83,48:8
83,50:10
83,51:10
83,54:2
83,55:2
83,56:2
83,57:2
83,58:10
83,59:2
83,60:11
83,61:11
83,62:11
83,63:11
83,64:11
83,66:11
83,67:10
83,68:5
83,69:3
83,70:3
83,72:3
83,73:5
83,74:5
83,75:5
83,76:5
83,77:3
83,80:3
84,1:4
84,2:4
84,3:4
84,4:4
84,6:4
84,8:2
84,9:6
84,10:6
84,14:6
84,15:6
84,16:5
84,17:2
84,18:2
84,19:3
84,20:3
84,21:3
84,22:3
84,23:3
84,24:3
84,25:7
84,26:6
84,27:7
84,28:4
84,29:8
84,30:3
84,31:8
84,32:8
84,33:1
84,34:1
84,35:6
84,36:10
84,37:6
84,38:10
84,39:5
84,43:5
84,45:5
84,46:2
84,48:8
84,50:10
84,51:10
84,54:2
84,55:2
84,56:2
84,57:2
84,58:10
84,59:2
84,60:11
84,61:11
84,62:11
84,63:11
84,64:11
84,66:11
84,67:10
84,68:5
84,69:3
84,70:3
84,72:3
84,73:5
84,74:5
84,75:5
84,76:5
84,77:3
84,80:3
85,1:4
85,2:4
85,3:4
85,4:4
85,6:4
85,8:2
85,9:6
85,10:6
85,14:6
85,15:6
85,16:5
85,17:2
85,18:2
85,19:3
85,20:3
85,21:3
85,22:3
85,23:3
85,24:3
85,25:7
85,26:6
85,27:7
85,28:4
85,29:8
85,30:3
85,31:8
85,32:8
85,33:1
85,34:1
85,35:6
85,36:10
85,37:6
85,38:10
85,39:5
85,43:5
85,45:5
85,46:2
85,48:8
85,50:10
85,51:10
85,54:2
85,55:2
85,56:2
85,57:2
85,58:10
85,59:2
85,60:11
85,61:11
85,62:11
85,63:11
85,64:11
85,66:11
85,67:10
85,68:5
85,69:3
85,70:3
85,72:3
85,73:5
85,74:5
85,75:5
85,76:5
85,77:3
85,80:3
86,1:4
86,2:4
86,3:4
86,4:4
86,6:4
86,8:2
86,9:6
86,10:6
86,14:6
86,15:6
86,16:5
86,17:2
86,18:2
86,19:3
86,20:3
86,21:3
86,22:3
86,23:3
86,24:3
86,25:7
86,26:6
86,27:7
86,28:4
86,29:8
86,30:3
86,31:8
86,32:8
86,33:1
86,34:1
86,35:6
86,36:10
86,37:6
86,38:10
86,39:5
86,43:5
86,45:5
86,46:2
86,48:8
86,50:10
86,51:10
86,54:2
86,55:2
86,56:2
86,57:2
86,58:10
86,59:2
86,60:11
86,61:11
86,62:11
86,63:11
86,64:11
86,66:11
86,67:10
86,68:5
86,69:3
86,70:3
86,72:3
86,73:5
86,74:5
86,75:5
86,76:5
86,77:3
86,80:3
87,36:2
87,38:2
87,50:2
87,51:2
87,58:2
87,60:3
87,61:3
87,62:3
87,63:3
87,64:3
87,66:3
87,67:2
88,36:2
88,38:2
88,50:2
88,51:2
88,58:2
88,60:3
88,61:3
88,62:3
88,63:3
88,64:3
88,66:3
88,67:2
89,36:2
89,38:2
89,50:2
89,51:2
89,58:2
89,60:3
89,61:3
89,62:3
89,63:3
89,64:3
89,66:3
89,67:2

<end>

<optimal SALBP-1 value>
22


<rand seed>
467321153

<Lower Bounds>
Lm1=21
Lms1=21
Lm2=5
Lm3=11
Lm4=21
Best=21

<Optimal Stations (Iterations: 10)>
28
